sat
(:elim-unconstrained  19
 :max-memory          18.74
 :memory              18.74
 :num-allocs          58315
 :rlimit-count        18098
 :solve-eqs-elim-vars 49
 :solve-eqs-steps     49
 :time                0.01
 :total-time          0.06)
